NAME: random problem
TYPE: MTSP
COMMENT: MTSP problem for MRS UAV summer school
DIMENSION: 20
NUMBER_OF_ROBOTS: 2
START_TARGET_INDEXES: 1, 2
NEIGHBORHOOD_RADIUS: 2
EDGE_WEIGHT_TYPE: EUC_2D
NODE_COORD_SECTION
1 15.0 -21.0
2 -5.0 -25.0
3 1.5 -3.7
4 -5.9 -10.6
5 22.1 -7.1
6 33.3 -1.3
7 37.5 -19.0
8 23.1 -9.1
9 27.6 12.2
10 30.7 9.3
11 -8.0 3.2
12 -4.0 4.6
13 23.1 20.8
14 -0.4 -19.6
15 -32.3 -20.0
16 -13.0 10.0
17 -24.8 -27.1
18 -12.0 10.6
19 33.4 -10.3
20 26.2 23.0
EOF
